CMD:
./solvers/bin/cadical --plain --no-reduce -t 1600 ./data/cnfs//pj2016/pj2016.72.cnf

c --- [ banner ] -------------------------------------------------------------
c 
c CaDiCaL SAT Solver
c Copyright (c) 2016-2024
c A. Biere, M. Fleury, N. Froleyks, K. Fazekas, F. Pollitt, T. Faller
c JKU Linz, University of Freiburg, TU Wien
c 
c Version 2.1.3 5296d3d2a9bf48c154ab2acb5e44625776d821bf
c g++ (Gentoo 12.3.1_p20230526 p2) 12.3.1 20230526 -Wall -Wextra -O3 -DNDEBUG
c Sat Aug 9 07:26:21 PDT 2025 Linux cedar2.int.cedar.computecanada.ca 5.14.0-362.24.2.el9_3.x86_64 x86_64
c 
c --- [ limit ] --------------------------------------------------------------
c 
c setting time limit to 1600 seconds real time (due to '-t 1600')
c 
c --- [ parsing input ] ------------------------------------------------------
c 
c reading DIMACS file from './data/cnfs//pj2016/pj2016.72.cnf'
c opening file to read './data/cnfs//pj2016/pj2016.72.cnf'
c found 'p cnf 2573827 7469700' header
c parsed 7469700 clauses in 1.29 seconds process time
c 
c --- [ options ] ------------------------------------------------------------
c 
c   --compact=false                (different from default 'true')
c   --decompose=false              (different from default 'true')
c   --deduplicate=false            (different from default 'true')
c   --elim=false                   (different from default 'true')
c   --probe=false                  (different from default 'true')
c   --reduce=false                 (different from default 'true')
c   --subsume=false                (different from default 'true')
c   --ternary=false                (different from default 'true')
c   --transred=false               (different from default 'true')
c   --vivify=false                 (different from default 'true')
c 
c --- [ solving ] ------------------------------------------------------------
c 
c time measured in process time since initialization
c 
c  seconds    reductions  redundant   irredundant
c          MB     restarts       trail         variables
c            level   conflicts       glue            remaining
c 
c *  1.29 1153  0 0   0    0    0  0% 0 7410968 2438111 95%
c {  1.34 1154  0 0   0    0    0  0% 0 7410968 2438111 95%
c i  1.36 1154 1392 0   0    7    5  7% 4 7410968 2438107 95%
c i  1.55 1156 4061 0   6  211  167 13% 2 7410968 2438097 95%
c i  1.60 1156 3464 0  16  247  200 12% 2 7410968 2438095 95%
c i  1.61 1156 3450 0  16  248  200 12% 2 7410968 2438093 95%
c i  1.62 1156 3436 0  17  249  200 12% 2 7410968 2438091 95%
c i  1.63 1156 3422 0  17  250  200 12% 2 7410968 2438089 95%
c i  1.63 1156 3408 0  17  251  200 12% 2 7410968 2438087 95%
c i  1.64 1156 3394 0  18  252  200 12% 2 7410968 2438085 95%
c i  1.65 1156 3381 0  18  253  200 12% 2 7410968 2438083 95%
c i  1.66 1156 3367 0  18  254  200 12% 2 7410968 2438081 95%
c i  1.67 1156 3354 0  19  255  200 12% 2 7410968 2438079 95%
c i  1.68 1156 3341 0  19  256  200 12% 2 7410968 2438077 95%
c i  1.69 1156 3327 0  19  257  200 12% 2 7410968 2438075 95%
c i  1.70 1156 3314 0  19  258  200 12% 2 7410968 2438073 95%
c i  1.71 1156 3301 0  19  259  200 12% 2 7410968 2438071 95%
c i  1.72 1156 3289 0  19  260  200 12% 2 7410968 2438069 95%
c i  1.72 1156 3276 0  19  261  200 12% 2 7410968 2438067 95%
c i  1.73 1156 3263 0  19  262  200 12% 2 7410968 2438065 95%
c 
c  seconds      reductions  redundant   irredundant
c          MB       restarts       trail         variables
c             level    conflicts       glue            remaining
c 
c i  1.74 1156 3251 0  19  263  200 12% 2 7410968 2438063 95%
c i  1.75 1156 3238 0  19  264  200 12% 2 7410968 2438061 95%
c i  1.76 1156 3226 0  19  265  200 12% 2 7410968 2438059 95%
c i  1.77 1156 3213 0  19  266  200 12% 2 7410968 2438057 95%
c i  1.78 1156 3201 0  19  267  200 12% 2 7410968 2438055 95%
c i  1.79 1156 3189 0  19  268  200 12% 2 7410968 2438053 95%
c i  1.79 1156 3177 0  19  269  200 12% 2 7410968 2438051 95%
c i  1.80 1156 3165 0  19  270  200 12% 2 7410968 2438049 95%
c i  1.80 1156 3153 0  19  271  200 12% 2 7410968 2438047 95%
c i  1.81 1156 3142 0  19  272  200 12% 2 7410968 2438045 95%
c i  1.81 1156 3130 0  19  273  200 12% 2 7410968 2438043 95%
c i  1.82 1156 3118 0  19  274  200 12% 2 7410968 2438041 95%
c i  1.82 1156 3107 0  19  275  200 12% 2 7410968 2438039 95%
c i  1.83 1156 3096 0  19  276  200 12% 2 7410968 2438037 95%
c i  1.83 1156 3084 0  19  277  200 12% 2 7410968 2438035 95%
c i  1.83 1156 3073 0  19  278  200 12% 2 7410968 2438033 95%
c i  1.83 1156 3062 0  19  279  200 12% 2 7410968 2438031 95%
c i  1.84 1156 3051 0  19  280  200 11% 2 7410968 2438029 95%
c i  1.84 1156 3040 0  19  281  200 11% 2 7410968 2438027 95%
c i  1.85 1156 3029 0  19  282  200 11% 2 7410968 2438025 95%
c 
c  seconds      reductions  redundant   irredundant
c          MB       restarts       trail         variables
c             level    conflicts       glue            remaining
c 
c i  1.85 1156 3018 0  19  283  200 11% 2 7410968 2438023 95%
c i  1.85 1156 3007 0  19  284  200 11% 2 7410968 2438021 95%
c i  1.86 1156 2997 0  19  285  200 11% 2 7410968 2438019 95%
c i  1.86 1156 2986 0  19  286  200 11% 2 7410968 2438017 95%
... skipped 58 lines ...
c i  5.36 1184 35718 0 139 1806 1532 80% 4 7410968 2436883 95%
c i  5.56 1184 35654 0 139 2024 1723 80% 4 7410968 2436881 95%
c i  5.59 1184 35625 0 139 2052 1735 80% 4 7410968 2436878 95%
c i  5.59 1184 35616 0 139 2061 1737 80% 4 7410968 2436877 95%
c i  7.87 1184 26150 0 140 2512 2104 63% 7 7410968 2436876 95%
c i  7.88 1184 26112 0 140 2514 2105 63% 7 7410968 2436872 95%
c i  7.89 1184 25871 0 140 2528 2114 63% 7 7410968 2436871 95%
c i  7.89 1184 25853 0 140 2529 2114 63% 7 7410968 2436865 95%
c 
c  seconds       reductions  redundant   irredundant
c          MB        restarts       trail         variables
c              level    conflicts       glue            remaining
c 
c i  7.89 1184 25798 0 140 2532 2115 62% 7 7410968 2436859 95%
c ]  8.81 1184 19700 0 140 3000 2519 50% 5 7410968 2436859 95%
c {  8.81 1184 1911 0 140 3000 2519 10% 3 7410968 2436859 95%
c F  8.83 1184 1901 0 142 3005 2524 10% 3 7410968 2436859 95%
c i  8.88 1184 1850 0 145 3034 2549 10% 3 7410968 2436855 95%
c i  8.88 1184 1818 0 145 3052 2565 10% 3 7410968 2436853 95%
c i  8.88 1184 1812 0 145 3057 2567 10% 3 7410968 2436851 95%
c i  8.88 1184 1808 0 145 3059 2568 10% 3 7410968 2436849 95%
c i  9.70 1184 1631 0 160 3288 2781 11% 3 7410968 2436845 95%
c i  9.84 1184 1478 0 194 3426 2901 10% 3 7410968 2436844 95%
c i  9.92 1184 1377 0 197 3538 2995 10% 3 7410968 2436842 95%
c i  9.92 1184 1371 0 197 3546 3002 10% 3 7410968 2436838 95%
c i  9.97 1184 1257 0 197 3707 3139 10% 3 7410968 2436833 95%
c i  9.97 1184 1256 0 197 3708 3139 10% 3 7410968 2436832 95%
c i  9.97 1184 1253 0 197 3713 3142 10% 3 7410968 2436830 95%
c i 10.02 1184 1164 0 197 3855 3259 10% 3 7410968 2436829 95%
c i 10.09 1184 1067 0 200 4035 3412 10% 3 7410968 2436827 95%
c i 10.11 1184 1036 0 200 4098 3470 10% 3 7410968 2436821 95%
c i 10.48 1184 963 0 220 4287 3637 10% 3 7410968 2436820 95%
c i 10.48 1184 962 0 221 4289 3638 10% 3 7410968 2436819 95%
c 
c  seconds     reductions  redundant   irredundant
c          MB      restarts       trail         variables
c             level   conflicts       glue            remaining
c 
c i 10.49 1184 954 0 223 4307 3654 10% 3 7410968 2436818 95%
c i 10.57 1184 915 0 230 4412 3742 10% 3 7410968 2436816 95%
c i 10.83 1184 842 0 274 4640 3927  9% 3 7410968 2436815 95%
c i 10.90 1184 782 0 288 4837 4088  9% 3 7410968 2436088 95%
c i 10.90 1184 781 0 288 4840 4089  9% 3 7410968 2434956 95%
c i 10.90 1184 781 0 288 4841 4089  9% 3 7410968 2427870 94%
c i 10.90 1184 781 0 288 4842 4089  9% 3 7410968 2427849 94%
c i 10.90 1184 780 0 288 4844 4090  9% 3 7410968 2427804 94%
c } 10.91 1184 779 0 288 4849 4093  9% 3 7410968 2403970 93%
c 0 10.91 1184 779 0 288 4849 4093  9% 3 7410968 2403970 93%
c 
c --- [ result ] -------------------------------------------------------------
c 
s UNSATISFIABLE
c 
c --- [ run-time profiling ] -------------------------------------------------
c 
c process time taken by individual solving procedures
c (percentage relative to process time for solving)
c 
c         9.62  100.00% search
c         4.90   51.00% stable
c         4.66   48.47% unstable
c         1.29   13.42% parse
c         0.05    0.53% lucky
c         0.00    0.00% simplify
c   =================================
c         9.62   88.16% solve
c 
c last line shows process time for solving
c (percentage relative to total process time)
c 
c --- [ statistics ] ---------------------------------------------------------
c 
c chronological:              2386        49.21 %  of conflicts
c conflicts:                  4849       504.20    per second
c decisions:                466857     48543.69    per second
c fixed:                    169813         6.60 %  of all variables
c learned:                    4521        93.24 %  per conflict
c learned_lits:              73900       100.00 %  learned literals
c minimized:                     0         0.00 %  learned literals
c shrunken:                  18485        25.01 %  learned literals
c minishrunken:              12700        17.19 %  learned literals
c otfs:                        109         2.25 %  of conflict
c propagations:           86978916         9.04 M  per second
c rephased:                      2      2424.50    interval
c restarts:                    288        16.84    interval
c stabilizing:                   1        41.20 %  of conflicts
c subsumed:                    307         0.00 %  of all clauses
c strengthened:                105         0.00 %  of all clauses
c 
c seconds are measured in process time for solving
c 
c --- [ resources ] ----------------------------------------------------------
c 
c total process time since initialization:        10.91    seconds
c total real time since initialization:           10.95    seconds
c maximum resident set size of process:         1182.88    MB
c 
c --- [ shutting down ] ------------------------------------------------------
c 
c exit 20
